13,3	0,0	12,3	18,1	0,0	0,0	0,0	0,0	0,0	18,1
8,9	11,3	0,0	11,8	9,8	0,0	0,0	19,5	0,0	0,0
0,0	0,0	13,5	0,0	9,4	15,7	0,0	0,0	12,6	0,0
12,7	0,0	13,1	0,0	0,0	0,0	17,8	0,0	0,0	0,0
0,0	6,3	0,0	17,3	19,0	0,0	0,0	14,2	0,0	0,0
0,0	17,3	17,7	0,0	11,5	18,5	0,0	0,0	7,6	0,0
0,0	15,1	0,0	16,2	0,0	0,0	13,6	0,0	0,0	8,3
7,3	0,0	14,4	0,0	0,0	0,0	0,0	0,0	0,0	12,7
0,0	14,6	0,0	14,7	16,7	0,0	0,0	9,2	0,0	0,0
0,0	0,0	17,1	0,0	0,0	14,1	6,7	0,0	0,0	18,8
									
3,3	3,1	4,1	2,6	3,4	3,7	2,8	3,5	3,1	2,9
